sat
(:added-eqs                       24218
 :arith-eq-adapter                1041
 :arith-bound-propagations-lp     4539
 :arith-branch                    43
 :arith-conflicts                 2706
 :arith-cube-calls                12
 :arith-dio-calls                 8
 :arith-dio-tighten-conflicts     1
 :arith-diseq                     8069
 :arith-fixed-eqs                 3056
 :arith-gcd-calls                 421
 :arith-grobner-calls             512
 :arith-grobner-conflicts         239
 :arith-hnf-calls                 11
 :arith-horner-calls              124
 :arith-horner-conflicts          3
 :arith-horner-cross-nested-forms 22434
 :arith-lower                     13180
 :arith-make-feasible             13210
 :arith-max-columns               1432
 :arith-max-rows                  594
 :arith-nla-add-bounds            101
 :arith-nla-lemmas                1374
 :arith-nla-propagate-bounds      851
 :arith-nla-propagate-eq          12207
 :arith-nra-calls                 94
 :arith-offset-eqs                743
 :arith-patches                   421
 :arith-patches-success           373
 :arith-upper                     20087
 :binary-propagations             61164
 :cnf-encoding-aux-vars           35
 :conflicts                       709
 :decisions                       158520
 :del-clause                      2376
 :elim-unconstrained              184
 :final-checks                    1089
 :max-memory                      27.20
 :memory                          19.17
 :minimized-lits                  1214
 :mk-bool-var                     7914
 :mk-clause                       3660
 :mk-clause-binary                14264
 :nlsat-conflicts                 10649
 :nlsat-decisions                 1611
 :nlsat-propagations              408237
 :nlsat-restarts                  2
 :nlsat-stages                    199306
 :num-allocs                      3449495817
 :num-checks                      2
 :propagations                    81943
 :restarts                        6
 :rlimit-count                    19714289
 :solve-eqs-elim-vars             104
 :solve-eqs-steps                 942
 :time                            6.92
 :total-time                      6.93)
